p cnf 133 420
-26 -1 0
-26 2 0
-26 5 0
-27 1 0
-27 -2 0
-27 5 0
-28 1 0
-28 2 0
-28 -5 0
26 27 28 0
-29 -2 0
-29 3 0
-29 6 0
-30 2 0
-30 -3 0
-30 6 0
-31 2 0
-31 3 0
-31 -6 0
29 30 31 0
-32 -3 0
-32 4 0
-32 7 0
-33 3 0
-33 -4 0
-33 7 0
-34 3 0
-34 4 0
-34 -7 0
32 33 34 0
-35 -1 0
-35 5 0
-35 8 0
-36 1 0
-36 -5 0
-36 8 0
-37 1 0
-37 5 0
-37 -8 0
35 36 37 0
-38 -2 0
-38 -5 0
-38 6 0
-38 9 0
-39 -2 0
-39 5 0
-39 -6 0
-39 9 0
-40 -2 0
-40 5 0
-40 6 0
-40 -9 0
-41 2 0
-41 -5 0
-41 -6 0
-41 9 0
-42 2 0
-42 -5 0
-42 6 0
-42 -9 0
-43 2 0
-43 5 0
-43 -6 0
-43 -9 0
38 39 40 41 42 43 0
-44 -3 0
-44 -6 0
-44 7 0
-44 10 0
-45 -3 0
-45 6 0
-45 -7 0
-45 10 0
-46 -3 0
-46 6 0
-46 7 0
-46 -10 0
-47 3 0
-47 -6 0
-47 -7 0
-47 10 0
-48 3 0
-48 -6 0
-48 7 0
-48 -10 0
-49 3 0
-49 6 0
-49 -7 0
-49 -10 0
44 45 46 47 48 49 0
-50 -4 0
-50 7 0
-50 11 0
-51 4 0
-51 -7 0
-51 11 0
-52 4 0
-52 7 0
-52 -11 0
50 51 52 0
-53 -5 0
-53 -8 0
-53 9 0
-53 12 0
-54 -5 0
-54 8 0
-54 -9 0
-54 12 0
-55 -5 0
-55 8 0
-55 9 0
-55 -12 0
-56 5 0
-56 -8 0
-56 -9 0
-56 12 0
-57 5 0
-57 -8 0
-57 9 0
-57 -12 0
-58 5 0
-58 8 0
-58 -9 0
-58 -12 0
53 54 55 56 57 58 0
-59 -6 0
-59 -9 0
-59 10 0
-59 13 0
-60 -6 0
-60 9 0
-60 -10 0
-60 13 0
-61 -6 0
-61 9 0
-61 10 0
-61 -13 0
-62 6 0
-62 -9 0
-62 -10 0
-62 13 0
-63 6 0
-63 -9 0
-63 10 0
-63 -13 0
-64 6 0
-64 9 0
-64 -10 0
-64 -13 0
59 60 61 62 63 64 0
-65 -7 0
-65 -10 0
-65 11 0
-65 14 0
-66 -7 0
-66 10 0
-66 -11 0
-66 14 0
-67 -7 0
-67 10 0
-67 11 0
-67 -14 0
-68 7 0
-68 -10 0
-68 -11 0
-68 14 0
-69 7 0
-69 -10 0
-69 11 0
-69 -14 0
-70 7 0
-70 10 0
-70 -11 0
-70 -14 0
65 66 67 68 69 70 0
-71 -8 0
-71 12 0
-71 15 0
-72 8 0
-72 -12 0
-72 15 0
-73 8 0
-73 12 0
-73 -15 0
71 72 73 0
-74 -9 0
-74 -12 0
-74 13 0
-74 16 0
-75 -9 0
-75 12 0
-75 -13 0
-75 16 0
-76 -9 0
-76 12 0
-76 13 0
-76 -16 0
-77 9 0
-77 -12 0
-77 -13 0
-77 16 0
-78 9 0
-78 -12 0
-78 13 0
-78 -16 0
-79 9 0
-79 12 0
-79 -13 0
-79 -16 0
74 75 76 77 78 79 0
-80 -10 0
-80 -13 0
-80 14 0
-80 17 0
-81 -10 0
-81 13 0
-81 -14 0
-81 17 0
-82 -10 0
-82 13 0
-82 14 0
-82 -17 0
-83 10 0
-83 -13 0
-83 -14 0
-83 17 0
-84 10 0
-84 -13 0
-84 14 0
-84 -17 0
-85 10 0
-85 13 0
-85 -14 0
-85 -17 0
80 81 82 83 84 85 0
-86 -11 0
-86 14 0
-86 18 0
-87 11 0
-87 -14 0
-87 18 0
-88 11 0
-88 14 0
-88 -18 0
86 87 88 0
-89 -12 0
-89 -15 0
-89 16 0
-89 19 0
-90 -12 0
-90 15 0
-90 -16 0
-90 19 0
-91 -12 0
-91 15 0
-91 16 0
-91 -19 0
-92 12 0
-92 -15 0
-92 -16 0
-92 19 0
-93 12 0
-93 -15 0
-93 16 0
-93 -19 0
-94 12 0
-94 15 0
-94 -16 0
-94 -19 0
89 90 91 92 93 94 0
-95 -13 0
-95 -16 0
-95 17 0
-95 20 0
-96 -13 0
-96 16 0
-96 -17 0
-96 20 0
-97 -13 0
-97 16 0
-97 17 0
-97 -20 0
-98 13 0
-98 -16 0
-98 -17 0
-98 20 0
-99 13 0
-99 -16 0
-99 17 0
-99 -20 0
-100 13 0
-100 16 0
-100 -17 0
-100 -20 0
95 96 97 98 99 100 0
-101 -14 0
-101 -17 0
-101 18 0
-101 21 0
-102 -14 0
-102 17 0
-102 -18 0
-102 21 0
-103 -14 0
-103 17 0
-103 18 0
-103 -21 0
-104 14 0
-104 -17 0
-104 -18 0
-104 21 0
-105 14 0
-105 -17 0
-105 18 0
-105 -21 0
-106 14 0
-106 17 0
-106 -18 0
-106 -21 0
101 102 103 104 105 106 0
-107 -15 0
-107 19 0
-107 22 0
-108 15 0
-108 -19 0
-108 22 0
-109 15 0
-109 19 0
-109 -22 0
107 108 109 0
-110 -16 0
-110 -19 0
-110 20 0
-110 23 0
-111 -16 0
-111 19 0
-111 -20 0
-111 23 0
-112 -16 0
-112 19 0
-112 20 0
-112 -23 0
-113 16 0
-113 -19 0
-113 -20 0
-113 23 0
-114 16 0
-114 -19 0
-114 20 0
-114 -23 0
-115 16 0
-115 19 0
-115 -20 0
-115 -23 0
110 111 112 113 114 115 0
-116 -17 0
-116 -20 0
-116 21 0
-116 24 0
-117 -17 0
-117 20 0
-117 -21 0
-117 24 0
-118 -17 0
-118 20 0
-118 21 0
-118 -24 0
-119 17 0
-119 -20 0
-119 -21 0
-119 24 0
-120 17 0
-120 -20 0
-120 21 0
-120 -24 0
-121 17 0
-121 20 0
-121 -21 0
-121 -24 0
116 117 118 119 120 121 0
-122 -18 0
-122 21 0
-122 25 0
-123 18 0
-123 -21 0
-123 25 0
-124 18 0
-124 21 0
-124 -25 0
122 123 124 0
-125 -19 0
-125 22 0
-125 23 0
-126 19 0
-126 -22 0
-126 23 0
-127 19 0
-127 22 0
-127 -23 0
125 126 127 0
-128 -20 0
-128 23 0
-128 24 0
-129 20 0
-129 -23 0
-129 24 0
-130 20 0
-130 23 0
-130 -24 0
128 129 130 0
-131 -21 0
-131 24 0
-131 25 0
-132 21 0
-132 -24 0
-132 25 0
-133 21 0
-133 24 0
-133 -25 0
131 132 133 0
